c --- [ banner ] -------------------------------------------------------------
c 
c CaDiCaL Radically Simplified CDCL SAT Solver
c Copyright (c) 2016-2021 A. Biere, M. Fleury, N. Froleyks
c 
c Version 1.5.2 ca9bff05c11bde5eae4912f9932871d1527e61d8
c g++ (GCC) 9.3.0 -Wall -Wextra -O3 -DNDEBUG
c Sun May 1 02:23:23 EDT 2022 Linux gra-login1 3.10.0-1160.59.1.el7.x86_64 x86_64
c 
c --- [ limit ] --------------------------------------------------------------
c 
c setting conflict limit to 200000 conflicts (due to '200000')
c 
c --- [ parsing input ] ------------------------------------------------------
c 
c reading DIMACS file from '12.cubes292.adj'
c opening file to read '12.cubes292.adj'
c found 'p cnf 5320 924210' header
c parsed 924210 clauses in 8.71 seconds process time
c closing file '12.cubes292.adj'
c after reading 686668115 bytes 654.9 MB
c 
c --- [ options ] ------------------------------------------------------------
c 
c all options are set to their default value
c 
c --- [ solving ] ------------------------------------------------------------
c 
c time measured in process time since initialization
c 
c  seconds   reductions  redundant  irredundant
c          MB    restarts       trail      variables
c           level   conflicts       glue        remaining
c 
c *  8.71 689  0 0   0    0    0  0% 0 923580 4009 75%
c {  9.71 726  0 0   0    0    0  0% 0 923580 4009 75%
c i 10.25 733 62 0   1   52   48 60% 12 923580 3931 74%
c i 10.33 735 50 0   1   69   60 57% 11 923580 3920 74%
c i 10.35 736 48 0   1   73   63 56% 10 923580 3908 73%
c i 10.48 738 33 0   1  113   69 51% 8 923580 3865 73%
c i 10.58 740 33 0   1  119   74 50% 8 923580 3864 73%
c i 10.62 741 33 0   1  121   75 50% 9 923580 3863 73%
c i 10.63 741 32 0   1  123   76 50% 8 923580 3862 73%
c i 10.74 741 32 0   1  126   78 50% 9 923580 3861 73%
c i 10.86 741 34 0   2  131   81 51% 10 923580 3860 73%
c - 13.42 704 28 1  31  302  119 44% 13 178922 3860 73%
c i 13.52 704 27 1  31  308  124 45% 13 178922 3859 73%
c i 13.53 704 27 1  31  309  124 45% 13 178922 3858 73%
c i 13.64 704 27 1  31  354  157 46% 13 178922 3857 72%
c i 13.72 704 26 1  31  388  179 46% 13 178922 3856 72%
c i 13.72 704 26 1  31  389  179 46% 13 178922 3855 72%
c i 13.73 704 26 1  31  393  182 46% 13 178922 3854 72%
c i 13.76 704 26 1  31  401  188 46% 13 178922 3853 72%
c i 14.01 704 32 1  45  453  232 47% 16 178922 3852 72%
c 
c  seconds   reductions  redundant   irredundant
c          MB    restarts       trail       variables
c           level   conflicts       glue         remaining
c 
c i 14.10 704 33 1  50  472  248 47% 16 178922 3851 72%
c i 14.20 704 30 1  59  589  278 46% 16 178922 3850 72%
c i 14.27 704 30 1  65  625  311 47% 16 178922 3849 72%
c i 14.28 704 30 1  65  627  312 47% 16 178922 3848 72%
c i 14.42 704 31 1  81  700  350 47% 16 178922 3847 72%
c i 14.43 704 31 1  82  706  353 47% 17 178922 3846 72%
c i 14.63 704 32 1 103  788  406 47% 17 178922 3845 72%
c i 14.64 704 32 1 103  790  407 47% 17 178922 3844 72%
c i 14.68 704 32 1 103  842  453 48% 17 178922 3843 72%
c i 14.69 704 32 1 103  849  459 48% 17 178922 3842 72%
c i 14.74 704 32 1 109  878  486 48% 17 178922 3841 72%
c i 14.74 704 32 1 110  879  486 48% 17 178922 3840 72%
c i 14.74 704 32 1 110  880  486 48% 17 178922 3839 72%
c i 14.74 704 32 1 110  881  486 48% 17 178922 3838 72%
c i 14.75 704 32 1 111  898  500 48% 18 178922 3837 72%
c i 14.77 704 32 1 116  913  512 48% 18 178922 3836 72%
c i 14.78 704 32 1 118  941  534 48% 18 178922 3835 72%
c } 14.89 704 32 1 126 1001  576 49% 18 178922 3835 72%
c [ 14.89 704  0 1 126 1001  576  0% 0 178922 3835 72%
c O 14.90 704  4 1 126 1002  577 38% 4 178922 3835 72%
c 
c  seconds   reductions  redundant  irredundant
c          MB    restarts       trail      variables
c           level   conflicts       glue        remaining
c 
c i 14.96 704  5 1 126 1041  583 36% 5 178922 3787 71%
c - 15.33 752  5 2 126 1053  518 35% 5 178284 3787 71%
c i 15.35 752  5 2 126 1195  530 39% 5 178284 3758 71%
c i 15.37 752  5 2 126 1213  536 39% 5 178284 3757 71%
c i 15.38 752  6 2 126 1217  538 39% 5 178284 3756 71%
c i 15.43 752  8 2 126 1263  578 42% 7 178284 3755 71%
c i 15.47 752  9 2 126 1310  603 44% 8 178284 3754 71%
c i 15.48 751  9 2 126 1321  613 44% 8 178284 3753 71%
c i 15.48 751  9 2 126 1323  614 44% 8 178284 3752 71%
c i 15.51 751 10 2 126 1352  630 44% 8 178284 3751 71%
c i 15.52 751 10 2 126 1371  641 45% 8 178284 3750 70%
c i 15.55 751 11 2 126 1447  683 46% 9 178284 3749 70%
c i 15.56 751 11 2 126 1469  699 46% 9 178284 3748 70%
c i 15.56 751 11 2 126 1476  703 46% 9 178284 3747 70%
c i 15.57 751 11 2 126 1507  722 46% 9 178284 3746 70%
c i 15.57 751 11 2 126 1510  723 47% 9 178284 3745 70%
c i 15.58 751 12 2 126 1527  732 47% 9 178284 3744 70%
c i 15.58 751 12 2 126 1537  739 47% 9 178284 3743 70%
c i 15.59 751 12 2 126 1555  748 47% 10 178284 3742 70%
c i 15.61 751 13 2 126 1615  800 48% 10 178284 3741 70%
c 
c  seconds   reductions  redundant   irredundant
c          MB    restarts       trail       variables
c           level   conflicts       glue         remaining
c 
c i 15.65 751 13 2 126 1690  849 48% 11 178284 3740 70%
c i 15.65 751 13 2 126 1692  850 48% 11 178284 3739 70%
c i 15.71 751 13 2 126 1796  926 49% 11 178284 3738 70%
c i 15.73 751 13 2 126 1822  939 49% 11 178284 3737 70%
c i 15.74 751 13 2 126 1827  942 49% 11 178284 3736 70%
c - 16.04 715 14 3 127 2179  835 49% 11 176969 3736 70%
c i 16.39 715 14 3 127 2637 1056 32% 12 176969 3735 70%
c i 16.43 715 14 3 127 2767 1086 31% 12 176969 3734 70%
c ] 16.49 715 14 3 127 3002 1170 32% 11 176969 3734 70%
c { 16.49 715 32 3 127 3002 1170 69% 18 176969 3734 70%
c F 16.49 715 32 3 127 3003 1170 69% 18 176969 3734 70%
c i 16.49 715 32 3 127 3003 1170 69% 18 176969 3718 70%
c i 16.71 714 31 3 127 3234 1364 62% 17 176969 3717 70%
c i 16.78 714 29 3 127 3399 1495 59% 17 176969 3716 70%
c i 16.93 715 30 3 141 3611 1670 55% 17 176969 3715 70%
c - 17.12 713 30 4 143 3679 1337 54% 17 176774 3715 70%
c d 18.10 713 25 4 172 5001 2144 45% 15 169485 3703 70%
c 2 18.14 713 25 4 172 5001 3783 45% 15 169419 3703 70%
c p 19.37 714 25 4 172 5001 9391 45% 15 169419 3671 69%
c d 19.48 714 25 4 172 5001 8813 45% 15 169324 3670 69%
c 
c  seconds   reductions  redundant   irredundant
c          MB    restarts       trail       variables
c           level   conflicts       glue         remaining
c 
c - 20.05 711 24 5 178 5551 1965 42% 14 169324 3670 69%
c # 20.58 711 25 5 229 6006 2338 40% 14 169324 3670 69%
c } 21.26 711 25 5 300 7002 3025 39% 15 169324 3670 69%
c [ 21.26 711 14 5 300 7002 3025 32% 11 169324 3670 69%
c - 21.48 671 15 6 301 7763 2556 32% 12 169324 3670 69%
c I 22.55 671 13 6 302 10007 3856 32% 11 169324 3670 69%
c - 23.00 671 14 7 303 10345 2993 32% 12 169324 3670 69%
c - 24.36 671 18 8 304 13293 3494 32% 15 169324 3670 69%
c ] 25.00 671 19 8 305 15002 4506 33% 16 169324 3670 69%
c { 25.00 671 25 8 305 15002 4506 39% 15 169324 3670 69%
c 3 25.02 671 25 8 305 15002 5696 39% 15 169324 3670 69%
c 2 25.06 671 25 8 305 15002 6034 39% 15 169322 3670 69%
c p 26.06 671 25 8 305 15002 11406 39% 15 169322 3670 69%
c B 26.16 671 25 8 306 15008 11411 39% 15 169322 3670 69%
c s 26.83 671 24 8 339 15696 11584 38% 15 166893 3670 69%
c v 28.49 671 24 8 339 15696 11584 38% 15 166807 3670 69%
c t 28.57 671 24 8 339 15696 11565 38% 15 166728 3670 69%
c e 28.90 673 24 8 339 15696 6071 38% 15 161482 716 13%
c s 29.01 673 24 8 339 15696 6069 38% 15 161153 716 13%
c - 30.09 674 24 9 418 16610 3932 63% 15 161153 716 13%
c 
c  seconds   reductions    redundant   irredundant
c          MB     restarts        trail       variables
c           level     conflicts       glue        remaining
c 
c - 31.91 674 22 10 588 20231 4247 65% 15 161153 716 13%
c W 32.40 674 21 10 588 21010 4631 65% 14 161153 716 13%
c - 34.71 674 21 11 819 24215 4755 62% 14 161153 716 13%
c F 36.98 674 20 11 1002 28011 6980 62% 14 161153 716 13%
c - 37.71 674 20 12 1046 28562 5395 61% 14 161153 716 13%
c 3 38.59 674 20 12 1062 30003 6958 61% 14 161153 716 13%
c 2 38.62 674 20 12 1062 30003 6984 61% 14 161151 716 13%
c p 39.08 674 20 12 1062 30003 8699 61% 14 161151 716 13%
c } 39.79 674 19 12 1099 31003 9193 61% 14 161151 716 13%
c [ 39.79 674 19 12 1099 31003 9193 169% 16 161151 716 13%
c - 40.58 674 17 13 1099 33270 5298 145% 15 161151 716 13%
c B 41.16 674 16 13 1102 36013 5662 125% 14 161151 716 13%
c - 42.49 674 18 14 1103 38345 5140 116% 15 161151 716 13%
c - 45.16 674 19 15 1106 43778 7128 102% 16 161151 716 13%
c W 46.64 674 19 15 1106 45018 7953 100% 16 161151 716 13%
c s 47.94 674 19 15 1107 46957 9147 97% 16 159984 716 13%
c v 49.15 674 19 15 1107 46957 9147 97% 16 159953 716 13%
c t 49.19 674 19 15 1107 46957 9146 97% 16 159952 716 13%
c e 49.49 674 19 15 1107 46957 9145 97% 16 159944 710 13%
c s 49.62 674 19 15 1107 46957 9145 97% 16 159443 710 13%
c 
c  seconds   reductions     redundant   irredundant
c          MB     restarts         trail       variables
c           level      conflicts       glue        remaining
c 
c - 51.03 674 20 16 1107 49572 7697 94% 17 159443 710 13%
c p 51.54 674 20 16 1107 50003 10317 93% 17 159443 710 13%
c O 53.35 674 20 16 1108 55019 13787 88% 17 159443 710 13%
c - 53.62 674 20 17 1109 55708 8421 88% 17 159443 710 13%
c ] 54.56 674 20 17 1111 58739 10577 85% 17 159443 710 13%
c 1 54.56 674 20 17 1111 58739 10577 85% 17 159443 710 13%
c 
c --- [ writing output ] -----------------------------------------------------
c 
c writing simplified CNF to DIMACS file 'simp/12.cubes292.adj.simp1'
c * 54.56 674 20 17 1111 58739 10577 85% 17 159443 710 13%
c opening file to write 'simp/12.cubes292.adj.simp1'
c writing 'p cnf 5320 159443' header
c closing file 'simp/12.cubes292.adj.simp1'
c after writing 41008421 bytes 39.1 MB
c wrote 159443 clauses in 0.32 seconds process time
c 
c --- [ writing extension ] --------------------------------------------------
c 
c writing extension stack to 'simp/12.cubes292.adj.ext1'
c opening file to write 'simp/12.cubes292.adj.ext1'
c closing file 'simp/12.cubes292.adj.ext1'
c after writing 163313 bytes 0.2 MB
c wrote 7551 witnesses in 0.00 seconds process time
c 
c --- [ result ] -------------------------------------------------------------
c 
s SATISFIABLE
c 
c --- [ run-time profiling ] -------------------------------------------------
c 
c process time taken by individual solving procedures
c (percentage relative to process time for solving)
c 
c        37.75   82.33% search
c        18.92   41.27% unstable
c        17.14   37.38% stable
c         8.71   19.00% parse
c         8.10   17.67% simplify
c         2.98    6.51% probe
c         2.95    6.43% vivify
c         1.19    2.59% elim
c         0.99    2.17% lucky
c         0.69    1.51% walk
c         0.47    1.03% subsume
c         0.10    0.22% ternary
c   =================================
c        45.85   83.54% solve
c 
c last line shows process time for solving
c (percentage relative to total process time)
c 
c --- [ statistics ] ---------------------------------------------------------
c 
c chronological:              9287        15.81 %  of conflicts
c conflicts:                 58739      1281.06    per second
c decisions:                100731      2196.89    per second
c eliminated:                 2960        55.64 %  of all variables
c fixed:                      1637        30.77 %  of all variables
c learned:                   57759        98.33 %  per conflict
c learned_lits:            6511738       100.00 %  learned literals
c minimized:                     0         0.00 %  learned literals
c shrunken:                3398149        52.18 %  learned literals
c minishrunken:             698895        10.73 %  learned literals
c propagations:            5954502         0.13 M  per second
c reduced:                   24986        42.54 %  per conflict
c rephased:                     10      5873.90    interval
c restarts:                   1111        52.87    interval
c stabilizing:                   3        64.25 %  of conflicts
c substituted:                  13         0.24 %  of all variables
c subsumed:                  26918         1.30 %  of all clauses
c strengthened:              32010         1.54 %  of all clauses
c ternary:                    4300         0.57 %  of resolved
c vivified:                    133         0.01 %  of all clauses
c walked:                        2     29369.50    interval
c weakened:                   5914         2.84    average size
c 
c seconds are measured in process time for solving
c 
c --- [ resources ] ----------------------------------------------------------
c 
c total process time since initialization:        54.89    seconds
c total real time since initialization:           54.96    seconds
c maximum resident set size of process:          794.92    MB
c 
c --- [ shutting down ] ------------------------------------------------------
c 
c exit 10
WARNING! DIMACS header mismatch: wrong number of variables.
============================[ Problem Statistics ]=============================
|                                                                             |
|  Number of variables:          3389                                         |
|  Number of clauses:          159445                                         |
|  Parse time:                   0.59 s                                       |
|  Simplification time:          0.01 s                                       |
|                                                                             |
============================[ Search Statistics ]====================================================
| Conflicts |          ORIGINAL         |          LEARNT          | Num Sols |      SUBGRAPHS      |
|           |    Vars  Clauses Literals |    Limit  Clauses Lit/Cl |          | Canonical Noncanon. |
=====================================================================================================
|       100 |    3293   159445  9717370 |     2000      100     57 |        0 |        16         0 |
|       271 |    3293   159466  9717821 |     2000      271     58 |        0 |        29        21 |
|       604 |    3293   159574  9720185 |     2000      604     47 |        0 |        72       129 |
|       943 |    3293   159576  9720233 |     2000      943     49 |        0 |        83       131 |
|      1459 |    3293   159586  9720509 |     2000     1459     52 |        0 |        94       141 |
|      2222 |    3293   159590  9720575 |     3601     1223     36 |        0 |       139       145 |
|      3472 |    3293   159701  9722993 |     3601     2473     50 |        0 |       229       256 |
|      5241 |    3293   159762  9724282 |     4999     2440     39 |        0 |       277       317 |
|      8291 |    3293   160250  9733933 |     6302     2993     29 |        0 |       408       805 |
|     12326 |    3293   160441  9737390 |     7554     3880     31 |        0 |       571       996 |
|     19355 |    3293   161704  9761346 |     8781     7136     29 |        0 |      1347      2259 |
|     28725 |    3293   162425  9772061 |    11204     7129     31 |        0 |      1714      2980 |
|     42196 |    3293   162922  9780854 |    13610     8806     28 |        0 |      2009      3477 |
|     64183 |    3293   165448  9823324 |    17206     8589     21 |        0 |      2636      6003 |
|     96756 |    3293   168829  9869302 |    20814    13570     30 |        0 |      3131      9384 |
|    147096 |    3293   175380  9962550 |    25607    18703     34 |        0 |      4064     15935 |
|    230436 |    3280   170719  9680432 |    29897    13333     17 |        0 |      5772     33591 |
=====================================================================================================
Number of solutions   : 0
Canonical subgraphs   : 6846           (221 /sec)
          order  3    : 1              (142857 /sec)
          order  4    : 1              (500000 /sec)
          order  5    : 1              (250000 /sec)
          order  6    : 1              (52632 /sec)
          order  7    : 2              (10152 /sec)
          order  8    : 7              (2882 /sec)
          order  9    : 30             (971 /sec)
          order 10    : 177            (411 /sec)
          order 11    : 589            (242 /sec)
          order 12    : 3272           (235 /sec)
          order 13    : 2394           (201 /sec)
          order 14    : 286            (174 /sec)
          order 15    : 23             (144 /sec)
          order 16    : 16             (137 /sec)
          order 17    : 13             (146 /sec)
          order 18    : 11             (145 /sec)
          order 19    : 11             (137 /sec)
          order 20    : 11             (130 /sec)
          order 21    : 0              (-nan /sec)
Noncanonical subgraphs: 42763          (1519 /sec)
          order  3    : 0              (-nan /sec)
          order  4    : 0              (-nan /sec)
          order  5    : 0              (-nan /sec)
          order  6    : 0              (-nan /sec)
          order  7    : 0              (-nan /sec)
          order  8    : 0              (-nan /sec)
          order  9    : 0              (-nan /sec)
          order 10    : 0              (-nan /sec)
          order 11    : 0              (-nan /sec)
          order 12    : 0              (-nan /sec)
          order 13    : 42292          (1523 /sec)
          order 14    : 448            (1640 /sec)
          order 15    : 10             (363 /sec)
          order 16    : 0              (-nan /sec)
          order 17    : 2              (2083 /sec)
          order 18    : 0              (-nan /sec)
          order 19    : 0              (-nan /sec)
          order 20    : 0              (-nan /sec)
Canonicity checking   : 31.0223 s
Noncanonicity checking: 28.151 s
Total canonicity time : 59.1733 s
database reductions   : 27
restarts              : 638
conflicts             : 271908         (2087 /sec)
decisions             : 388679         (0.00 % random) (2983 /sec)
propagations          : 13653071       (104794 /sec)
conflict literals     : 15741190       (53.55 % deleted)
actual reward         : 0.224966
Memory used           : 148.00 MB
CPU time              : 130.285 s

UNSATISFIABLE
